<number of tasks>
50

<cycle time>
1000

<order strength>
0.196


<task times>
1 46
2 100
3 467
4 238
5 92
6 261
7 62
8 231
9 185
10 35
11 213
12 338
13 477
14 60
15 157
16 43
17 276
18 55
19 42
20 533
21 21
22 34
23 134
24 77
25 170
26 96
27 98
28 415
29 133
30 93
31 382
32 263
33 243
34 324
35 151
36 25
37 50
38 420
39 302
40 445
41 33
42 66
43 432
44 315
45 125
46 131
47 27
48 463
49 140
50 146

<precedence relations>
1,7
2,6
2,29
3,8
3,9
3,10
4,22
4,37
6,11
7,15
8,14
9,12
9,17
9,30
10,13
10,16
11,23
12,18
13,19
14,21
15,24
16,20
16,22
16,24
18,26
19,28
20,27
21,29
22,25
22,49
23,28
23,30
23,31
25,32
26,33
27,34
28,35
28,37
29,36
32,38
33,40
34,41
35,39
35,43
37,42
37,44
38,46
39,45
40,47
41,48
43,49
43,50

<end>
